<?xml version="1.0" encoding="UTF-8"?><osil xmlns="os.optimizationservices.org"   xmlns:xsi="http://www.w3.org/2001/XMLSchema-instance" xsi:schemaLocation="os.optimizationservices.org http://www.optimizationservices.org/schemas/2.0/OSiL.xsd" ><instanceHeader><name>q_40_0_75_1</name></instanceHeader><instanceData><variables numberOfVariables="40"><var name="x1" ub="1"/><var name="x2" ub="1"/><var name="x3" ub="1"/><var name="x4" ub="1"/><var name="x5" ub="1"/><var name="x6" ub="1"/><var name="x7" ub="1"/><var name="x8" ub="1"/><var name="x9" ub="1"/><var name="x10" ub="1"/><var name="x11" ub="1"/><var name="x12" ub="1"/><var name="x13" ub="1"/><var name="x14" ub="1"/><var name="x15" ub="1"/><var name="x16" ub="1"/><var name="x17" ub="1"/><var name="x18" ub="1"/><var name="x19" ub="1"/><var name="x20" ub="1"/><var name="x21" ub="1"/><var name="x22" ub="1"/><var name="x23" ub="1"/><var name="x24" ub="1"/><var name="x25" ub="1"/><var name="x26" ub="1"/><var name="x27" ub="1"/><var name="x28" ub="1"/><var name="x29" ub="1"/><var name="x30" ub="1"/><var name="x31" ub="1"/><var name="x32" ub="1"/><var name="x33" ub="1"/><var name="x34" ub="1"/><var name="x35" ub="1"/><var name="x36" ub="1"/><var name="x37" ub="1"/><var name="x38" ub="1"/><var name="x39" ub="1"/><var name="x40" ub="1"/></variables><objectives numberOfObjectives="1"><obj maxOrMin="min" name="defObj_x41" numberOfObjCoef="40"><coef idx="0">5.73e-2</coef><coef idx="1">.8851</coef><coef idx="2">.9515</coef><coef idx="3">-6.04e-2</coef><coef idx="4">-.8915</coef><coef idx="5">-9.68e-2</coef><coef idx="6">-.5954</coef><coef idx="7">-.902</coef><coef idx="8">.9315</coef><coef idx="9">.4294</coef><coef idx="10">.7398</coef><coef idx="11">-.6759</coef><coef idx="12">-1.66e-2</coef><coef idx="13">.3176</coef><coef idx="14">-.434</coef><coef idx="15">-.8219</coef><coef idx="16">-.9323</coef><coef idx="17">-.2384</coef><coef idx="18">.2604</coef><coef idx="19">.4567</coef><coef idx="20">.7508</coef><coef idx="21">.1384</coef><coef idx="22">-.5557</coef><coef idx="23">-.2385</coef><coef idx="24">1.99e-2</coef><coef idx="25">.7632</coef><coef idx="26">-.9947</coef><coef idx="27">-.3877</coef><coef idx="28">.8177</coef><coef idx="29">-.3725</coef><coef idx="30">-.3487</coef><coef idx="31">-.8521</coef><coef idx="32">.7201</coef><coef idx="33">-.9411</coef><coef idx="34">-.6075</coef><coef idx="35">.4446</coef><coef idx="36">-.6889</coef><coef idx="37">.5368</coef><coef idx="38">.9675</coef><coef idx="39">-.1386</coef></obj></objectives><quadraticCoefficients  numberOfQuadraticTerms="420" ><qTerm  idx="-1"  idxOne="0"  idxTwo="0"  coef=".2972"/><qTerm  idx="-1"  idxOne="0"  idxTwo="1"  coef="-.682"/><qTerm  idx="-1"  idxOne="0"  idxTwo="2"  coef="-.2246"/><qTerm  idx="-1"  idxOne="0"  idxTwo="4"  coef=".2078"/><qTerm  idx="-1"  idxOne="0"  idxTwo="6"  coef="8.01e-2"/><qTerm  idx="-1"  idxOne="0"  idxTwo="7"  coef=".412"/><qTerm  idx="-1"  idxOne="0"  idxTwo="10"  coef="-.7653"/><qTerm  idx="-1"  idxOne="0"  idxTwo="11"  coef=".7097"/><qTerm  idx="-1"  idxOne="0"  idxTwo="13"  coef=".1609"/><qTerm  idx="-1"  idxOne="0"  idxTwo="14"  coef="4.63e-2"/><qTerm  idx="-1"  idxOne="0"  idxTwo="15"  coef="-4.9e-2"/><qTerm  idx="-1"  idxOne="0"  idxTwo="17"  coef="-.9321"/><qTerm  idx="-1"  idxOne="0"  idxTwo="20"  coef=".5337"/><qTerm  idx="-1"  idxOne="0"  idxTwo="21"  coef=".6369"/><qTerm  idx="-1"  idxOne="0"  idxTwo="22"  coef="-.8873"/><qTerm  idx="-1"  idxOne="0"  idxTwo="23"  coef="-.5746"/><qTerm  idx="-1"  idxOne="0"  idxTwo="25"  coef=".4865"/><qTerm  idx="-1"  idxOne="0"  idxTwo="26"  coef="-.3803"/><qTerm  idx="-1"  idxOne="0"  idxTwo="28"  coef="-.7699"/><qTerm  idx="-1"  idxOne="0"  idxTwo="29"  coef=".7363"/><qTerm  idx="-1"  idxOne="0"  idxTwo="30"  coef="-.2812"/><qTerm  idx="-1"  idxOne="0"  idxTwo="31"  coef=".8172"/><qTerm  idx="-1"  idxOne="0"  idxTwo="34"  coef="-.5754"/><qTerm  idx="-1"  idxOne="0"  idxTwo="35"  coef="-.2821"/><qTerm  idx="-1"  idxOne="0"  idxTwo="36"  coef="-.8113"/><qTerm  idx="-1"  idxOne="0"  idxTwo="38"  coef=".3038"/><qTerm  idx="-1"  idxOne="0"  idxTwo="39"  coef=".8093"/><qTerm  idx="-1"  idxOne="1"  idxTwo="1"  coef=".5277"/><qTerm  idx="-1"  idxOne="1"  idxTwo="3"  coef=".7849"/><qTerm  idx="-1"  idxOne="1"  idxTwo="4"  coef=".6706"/><qTerm  idx="-1"  idxOne="1"  idxTwo="5"  coef="1.52e-2"/><qTerm  idx="-1"  idxOne="1"  idxTwo="9"  coef="-9.e-3"/><qTerm  idx="-1"  idxOne="1"  idxTwo="10"  coef="8.2e-3"/><qTerm  idx="-1"  idxOne="1"  idxTwo="14"  coef=".5372"/><qTerm  idx="-1"  idxOne="1"  idxTwo="16"  coef="-.2333"/><qTerm  idx="-1"  idxOne="1"  idxTwo="17"  coef="-.8164"/><qTerm  idx="-1"  idxOne="1"  idxTwo="18"  coef=".8521"/><qTerm  idx="-1"  idxOne="1"  idxTwo="20"  coef=".4163"/><qTerm  idx="-1"  idxOne="1"  idxTwo="29"  coef=".6625"/><qTerm  idx="-1"  idxOne="1"  idxTwo="30"  coef=".6022"/><qTerm  idx="-1"  idxOne="1"  idxTwo="32"  coef=".1782"/><qTerm  idx="-1"  idxOne="1"  idxTwo="33"  coef=".63"/><qTerm  idx="-1"  idxOne="1"  idxTwo="34"  coef=".4385"/><qTerm  idx="-1"  idxOne="1"  idxTwo="36"  coef=".9963"/><qTerm  idx="-1"  idxOne="1"  idxTwo="37"  coef=".8737"/><qTerm  idx="-1"  idxOne="1"  idxTwo="38"  coef=".382"/><qTerm  idx="-1"  idxOne="2"  idxTwo="2"  coef=".4417"/><qTerm  idx="-1"  idxOne="2"  idxTwo="6"  coef=".2669"/><qTerm  idx="-1"  idxOne="2"  idxTwo="8"  coef=".7712"/><qTerm  idx="-1"  idxOne="2"  idxTwo="9"  coef=".5226"/><qTerm  idx="-1"  idxOne="2"  idxTwo="11"  coef=".3681"/><qTerm  idx="-1"  idxOne="2"  idxTwo="12"  coef=".7255"/><qTerm  idx="-1"  idxOne="2"  idxTwo="13"  coef="-.4059"/><qTerm  idx="-1"  idxOne="2"  idxTwo="14"  coef=".9658"/><qTerm  idx="-1"  idxOne="2"  idxTwo="16"  coef="-.8057"/><qTerm  idx="-1"  idxOne="2"  idxTwo="18"  coef=".2716"/><qTerm  idx="-1"  idxOne="2"  idxTwo="20"  coef="-.8667"/><qTerm  idx="-1"  idxOne="2"  idxTwo="23"  coef="-.6541"/><qTerm  idx="-1"  idxOne="2"  idxTwo="24"  coef="-7.23e-2"/><qTerm  idx="-1"  idxOne="2"  idxTwo="25"  coef="-.1218"/><qTerm  idx="-1"  idxOne="2"  idxTwo="27"  coef=".6082"/><qTerm  idx="-1"  idxOne="2"  idxTwo="28"  coef="-.1423"/><qTerm  idx="-1"  idxOne="2"  idxTwo="29"  coef=".5249"/><qTerm  idx="-1"  idxOne="2"  idxTwo="31"  coef=".4167"/><qTerm  idx="-1"  idxOne="2"  idxTwo="32"  coef="-.507"/><qTerm  idx="-1"  idxOne="2"  idxTwo="35"  coef=".8024"/><qTerm  idx="-1"  idxOne="2"  idxTwo="36"  coef="-.8732"/><qTerm  idx="-1"  idxOne="2"  idxTwo="38"  coef="-.9641"/><qTerm  idx="-1"  idxOne="2"  idxTwo="39"  coef=".8948"/><qTerm  idx="-1"  idxOne="3"  idxTwo="5"  coef="-2.28e-2"/><qTerm  idx="-1"  idxOne="3"  idxTwo="7"  coef="-.2308"/><qTerm  idx="-1"  idxOne="3"  idxTwo="11"  coef="-.8365"/><qTerm  idx="-1"  idxOne="3"  idxTwo="12"  coef="-4.07e-2"/><qTerm  idx="-1"  idxOne="3"  idxTwo="13"  coef="-.6009"/><qTerm  idx="-1"  idxOne="3"  idxTwo="14"  coef="-.2916"/><qTerm  idx="-1"  idxOne="3"  idxTwo="16"  coef="-.1374"/><qTerm  idx="-1"  idxOne="3"  idxTwo="17"  coef=".8125"/><qTerm  idx="-1"  idxOne="3"  idxTwo="18"  coef=".8725"/><qTerm  idx="-1"  idxOne="3"  idxTwo="20"  coef=".4909"/><qTerm  idx="-1"  idxOne="3"  idxTwo="22"  coef=".9356"/><qTerm  idx="-1"  idxOne="3"  idxTwo="23"  coef=".7571"/><qTerm  idx="-1"  idxOne="3"  idxTwo="26"  coef="-.4834"/><qTerm  idx="-1"  idxOne="3"  idxTwo="27"  coef=".5875"/><qTerm  idx="-1"  idxOne="3"  idxTwo="28"  coef="-.8418"/><qTerm  idx="-1"  idxOne="3"  idxTwo="29"  coef="-.9637"/><qTerm  idx="-1"  idxOne="3"  idxTwo="30"  coef="-.3318"/><qTerm  idx="-1"  idxOne="3"  idxTwo="31"  coef="-.3304"/><qTerm  idx="-1"  idxOne="3"  idxTwo="33"  coef="8.6e-3"/><qTerm  idx="-1"  idxOne="3"  idxTwo="35"  coef="-.2382"/><qTerm  idx="-1"  idxOne="3"  idxTwo="36"  coef=".7865"/><qTerm  idx="-1"  idxOne="3"  idxTwo="37"  coef="-.4775"/><qTerm  idx="-1"  idxOne="3"  idxTwo="39"  coef="-1.12e-2"/><qTerm  idx="-1"  idxOne="4"  idxTwo="4"  coef=".4793"/><qTerm  idx="-1"  idxOne="4"  idxTwo="5"  coef=".2361"/><qTerm  idx="-1"  idxOne="4"  idxTwo="7"  coef=".3537"/><qTerm  idx="-1"  idxOne="4"  idxTwo="9"  coef=".4693"/><qTerm  idx="-1"  idxOne="4"  idxTwo="10"  coef=".7316"/><qTerm  idx="-1"  idxOne="4"  idxTwo="11"  coef=".3182"/><qTerm  idx="-1"  idxOne="4"  idxTwo="12"  coef=".8041"/><qTerm  idx="-1"  idxOne="4"  idxTwo="14"  coef="-.4561"/><qTerm  idx="-1"  idxOne="4"  idxTwo="15"  coef=".8676"/><qTerm  idx="-1"  idxOne="4"  idxTwo="16"  coef="-.7196"/><qTerm  idx="-1"  idxOne="4"  idxTwo="18"  coef="-.3273"/><qTerm  idx="-1"  idxOne="4"  idxTwo="19"  coef="-5.17e-2"/><qTerm  idx="-1"  idxOne="4"  idxTwo="20"  coef="-.9975"/><qTerm  idx="-1"  idxOne="4"  idxTwo="21"  coef="-.5365"/><qTerm  idx="-1"  idxOne="4"  idxTwo="31"  coef=".9168"/><qTerm  idx="-1"  idxOne="4"  idxTwo="32"  coef=".7715"/><qTerm  idx="-1"  idxOne="4"  idxTwo="33"  coef=".1129"/><qTerm  idx="-1"  idxOne="4"  idxTwo="34"  coef="-.3254"/><qTerm  idx="-1"  idxOne="4"  idxTwo="35"  coef="-.6267"/><qTerm  idx="-1"  idxOne="4"  idxTwo="36"  coef="-.2341"/><qTerm  idx="-1"  idxOne="4"  idxTwo="38"  coef=".332"/><qTerm  idx="-1"  idxOne="4"  idxTwo="39"  coef=".8281"/><qTerm  idx="-1"  idxOne="5"  idxTwo="7"  coef="-.1747"/><qTerm  idx="-1"  idxOne="5"  idxTwo="8"  coef=".9767"/><qTerm  idx="-1"  idxOne="5"  idxTwo="10"  coef="-.6643"/><qTerm  idx="-1"  idxOne="5"  idxTwo="13"  coef="-.7506"/><qTerm  idx="-1"  idxOne="5"  idxTwo="16"  coef="1.68e-2"/><qTerm  idx="-1"  idxOne="5"  idxTwo="19"  coef="-5.13e-2"/><qTerm  idx="-1"  idxOne="5"  idxTwo="20"  coef="-.6878"/><qTerm  idx="-1"  idxOne="5"  idxTwo="26"  coef="-2.65e-2"/><qTerm  idx="-1"  idxOne="5"  idxTwo="27"  coef=".6138"/><qTerm  idx="-1"  idxOne="5"  idxTwo="31"  coef=".9757"/><qTerm  idx="-1"  idxOne="5"  idxTwo="33"  coef="-.8293"/><qTerm  idx="-1"  idxOne="5"  idxTwo="34"  coef=".9219"/><qTerm  idx="-1"  idxOne="5"  idxTwo="35"  coef=".403"/><qTerm  idx="-1"  idxOne="5"  idxTwo="36"  coef="-3.83e-2"/><qTerm  idx="-1"  idxOne="6"  idxTwo="6"  coef="-.1156"/><qTerm  idx="-1"  idxOne="6"  idxTwo="10"  coef="-.9505"/><qTerm  idx="-1"  idxOne="6"  idxTwo="12"  coef="-.5166"/><qTerm  idx="-1"  idxOne="6"  idxTwo="15"  coef="-.7652"/><qTerm  idx="-1"  idxOne="6"  idxTwo="19"  coef="-.9915"/><qTerm  idx="-1"  idxOne="6"  idxTwo="20"  coef="-.477"/><qTerm  idx="-1"  idxOne="6"  idxTwo="23"  coef=".1948"/><qTerm  idx="-1"  idxOne="6"  idxTwo="25"  coef="-.9361"/><qTerm  idx="-1"  idxOne="6"  idxTwo="27"  coef="-4.42e-2"/><qTerm  idx="-1"  idxOne="6"  idxTwo="32"  coef="-.4517"/><qTerm  idx="-1"  idxOne="6"  idxTwo="34"  coef="-.8448"/><qTerm  idx="-1"  idxOne="6"  idxTwo="35"  coef="-.8462"/><qTerm  idx="-1"  idxOne="6"  idxTwo="36"  coef=".7179"/><qTerm  idx="-1"  idxOne="6"  idxTwo="39"  coef=".1438"/><qTerm  idx="-1"  idxOne="7"  idxTwo="7"  coef="-.831"/><qTerm  idx="-1"  idxOne="7"  idxTwo="9"  coef=".1377"/><qTerm  idx="-1"  idxOne="7"  idxTwo="10"  coef=".2404"/><qTerm  idx="-1"  idxOne="7"  idxTwo="13"  coef=".4776"/><qTerm  idx="-1"  idxOne="7"  idxTwo="16"  coef=".9781"/><qTerm  idx="-1"  idxOne="7"  idxTwo="18"  coef="-.4061"/><qTerm  idx="-1"  idxOne="7"  idxTwo="19"  coef="-.8912"/><qTerm  idx="-1"  idxOne="7"  idxTwo="20"  coef=".9125"/><qTerm  idx="-1"  idxOne="7"  idxTwo="22"  coef=".706"/><qTerm  idx="-1"  idxOne="7"  idxTwo="25"  coef="-.8906"/><qTerm  idx="-1"  idxOne="7"  idxTwo="29"  coef=".942"/><qTerm  idx="-1"  idxOne="7"  idxTwo="30"  coef="-2.61e-2"/><qTerm  idx="-1"  idxOne="7"  idxTwo="31"  coef="-6.8e-2"/><qTerm  idx="-1"  idxOne="7"  idxTwo="33"  coef="-.847"/><qTerm  idx="-1"  idxOne="7"  idxTwo="35"  coef=".5746"/><qTerm  idx="-1"  idxOne="7"  idxTwo="36"  coef="-.3526"/><qTerm  idx="-1"  idxOne="7"  idxTwo="37"  coef=".4389"/><qTerm  idx="-1"  idxOne="7"  idxTwo="38"  coef=".4542"/><qTerm  idx="-1"  idxOne="8"  idxTwo="12"  coef="3.67e-2"/><qTerm  idx="-1"  idxOne="8"  idxTwo="13"  coef="-.3709"/><qTerm  idx="-1"  idxOne="8"  idxTwo="14"  coef=".8193"/><qTerm  idx="-1"  idxOne="8"  idxTwo="19"  coef=".5633"/><qTerm  idx="-1"  idxOne="8"  idxTwo="21"  coef="-3.82e-2"/><qTerm  idx="-1"  idxOne="8"  idxTwo="23"  coef="-.959"/><qTerm  idx="-1"  idxOne="8"  idxTwo="24"  coef="-.7036"/><qTerm  idx="-1"  idxOne="8"  idxTwo="27"  coef=".7485"/><qTerm  idx="-1"  idxOne="8"  idxTwo="29"  coef="-8.68e-2"/><qTerm  idx="-1"  idxOne="8"  idxTwo="36"  coef="-.6044"/><qTerm  idx="-1"  idxOne="8"  idxTwo="39"  coef=".3054"/><qTerm  idx="-1"  idxOne="9"  idxTwo="9"  coef=".6064"/><qTerm  idx="-1"  idxOne="9"  idxTwo="10"  coef="-.5288"/><qTerm  idx="-1"  idxOne="9"  idxTwo="14"  coef="-2.85e-2"/><qTerm  idx="-1"  idxOne="9"  idxTwo="15"  coef="-.5481"/><qTerm  idx="-1"  idxOne="9"  idxTwo="16"  coef="-.7647"/><qTerm  idx="-1"  idxOne="9"  idxTwo="17"  coef=".6671"/><qTerm  idx="-1"  idxOne="9"  idxTwo="19"  coef="-9.21e-2"/><qTerm  idx="-1"  idxOne="9"  idxTwo="20"  coef=".7822"/><qTerm  idx="-1"  idxOne="9"  idxTwo="22"  coef="-.688"/><qTerm  idx="-1"  idxOne="9"  idxTwo="24"  coef="-.623"/><qTerm  idx="-1"  idxOne="9"  idxTwo="29"  coef="-.6958"/><qTerm  idx="-1"  idxOne="9"  idxTwo="32"  coef=".2072"/><qTerm  idx="-1"  idxOne="9"  idxTwo="34"  coef=".8573"/><qTerm  idx="-1"  idxOne="9"  idxTwo="35"  coef=".9353"/><qTerm  idx="-1"  idxOne="9"  idxTwo="39"  coef="-.7581"/><qTerm  idx="-1"  idxOne="10"  idxTwo="10"  coef="-.6678"/><qTerm  idx="-1"  idxOne="10"  idxTwo="11"  coef=".7244"/><qTerm  idx="-1"  idxOne="10"  idxTwo="14"  coef=".497"/><qTerm  idx="-1"  idxOne="10"  idxTwo="16"  coef=".8841"/><qTerm  idx="-1"  idxOne="10"  idxTwo="17"  coef="-.419"/><qTerm  idx="-1"  idxOne="10"  idxTwo="19"  coef="-.5639"/><qTerm  idx="-1"  idxOne="10"  idxTwo="22"  coef=".3384"/><qTerm  idx="-1"  idxOne="10"  idxTwo="23"  coef=".8517"/><qTerm  idx="-1"  idxOne="10"  idxTwo="27"  coef=".2487"/><qTerm  idx="-1"  idxOne="10"  idxTwo="28"  coef=".352"/><qTerm  idx="-1"  idxOne="10"  idxTwo="29"  coef="-.9956"/><qTerm  idx="-1"  idxOne="10"  idxTwo="31"  coef=".1963"/><qTerm  idx="-1"  idxOne="10"  idxTwo="36"  coef=".6505"/><qTerm  idx="-1"  idxOne="10"  idxTwo="39"  coef=".8868"/><qTerm  idx="-1"  idxOne="11"  idxTwo="11"  coef="6.4e-2"/><qTerm  idx="-1"  idxOne="11"  idxTwo="12"  coef="-.2306"/><qTerm  idx="-1"  idxOne="11"  idxTwo="13"  coef=".3456"/><qTerm  idx="-1"  idxOne="11"  idxTwo="14"  coef="-1.24e-2"/><qTerm  idx="-1"  idxOne="11"  idxTwo="15"  coef="-.7644"/><qTerm  idx="-1"  idxOne="11"  idxTwo="16"  coef="-.9407"/><qTerm  idx="-1"  idxOne="11"  idxTwo="18"  coef="-.5041"/><qTerm  idx="-1"  idxOne="11"  idxTwo="23"  coef="-.4612"/><qTerm  idx="-1"  idxOne="11"  idxTwo="25"  coef=".6372"/><qTerm  idx="-1"  idxOne="11"  idxTwo="26"  coef="-.9423"/><qTerm  idx="-1"  idxOne="11"  idxTwo="27"  coef=".4769"/><qTerm  idx="-1"  idxOne="11"  idxTwo="32"  coef=".6691"/><qTerm  idx="-1"  idxOne="11"  idxTwo="36"  coef="-.6518"/><qTerm  idx="-1"  idxOne="11"  idxTwo="39"  coef=".5892"/><qTerm  idx="-1"  idxOne="12"  idxTwo="14"  coef=".1282"/><qTerm  idx="-1"  idxOne="12"  idxTwo="15"  coef="-9.7e-3"/><qTerm  idx="-1"  idxOne="12"  idxTwo="16"  coef="-3.7e-3"/><qTerm  idx="-1"  idxOne="12"  idxTwo="17"  coef="-.4974"/><qTerm  idx="-1"  idxOne="12"  idxTwo="19"  coef="-.1368"/><qTerm  idx="-1"  idxOne="12"  idxTwo="20"  coef="-.663"/><qTerm  idx="-1"  idxOne="12"  idxTwo="22"  coef="-.3471"/><qTerm  idx="-1"  idxOne="12"  idxTwo="24"  coef="-.9665"/><qTerm  idx="-1"  idxOne="12"  idxTwo="25"  coef="-.6331"/><qTerm  idx="-1"  idxOne="12"  idxTwo="26"  coef="-9.98e-2"/><qTerm  idx="-1"  idxOne="12"  idxTwo="28"  coef=".9348"/><qTerm  idx="-1"  idxOne="12"  idxTwo="30"  coef="-.5585"/><qTerm  idx="-1"  idxOne="12"  idxTwo="31"  coef="-.1588"/><qTerm  idx="-1"  idxOne="12"  idxTwo="33"  coef=".3535"/><qTerm  idx="-1"  idxOne="12"  idxTwo="36"  coef="-.5013"/><qTerm  idx="-1"  idxOne="12"  idxTwo="38"  coef=".5619"/><qTerm  idx="-1"  idxOne="12"  idxTwo="39"  coef=".6594"/><qTerm  idx="-1"  idxOne="13"  idxTwo="13"  coef="-.6765"/><qTerm  idx="-1"  idxOne="13"  idxTwo="15"  coef=".8412"/><qTerm  idx="-1"  idxOne="13"  idxTwo="16"  coef="-.6171"/><qTerm  idx="-1"  idxOne="13"  idxTwo="17"  coef=".5953"/><qTerm  idx="-1"  idxOne="13"  idxTwo="19"  coef=".9679"/><qTerm  idx="-1"  idxOne="13"  idxTwo="21"  coef=".7684"/><qTerm  idx="-1"  idxOne="13"  idxTwo="24"  coef=".3959"/><qTerm  idx="-1"  idxOne="13"  idxTwo="26"  coef=".61"/><qTerm  idx="-1"  idxOne="13"  idxTwo="29"  coef=".6235"/><qTerm  idx="-1"  idxOne="13"  idxTwo="31"  coef="-.2316"/><qTerm  idx="-1"  idxOne="13"  idxTwo="32"  coef=".2738"/><qTerm  idx="-1"  idxOne="13"  idxTwo="33"  coef="-.5261"/><qTerm  idx="-1"  idxOne="13"  idxTwo="35"  coef=".6011"/><qTerm  idx="-1"  idxOne="13"  idxTwo="39"  coef=".421"/><qTerm  idx="-1"  idxOne="14"  idxTwo="14"  coef="-.9893"/><qTerm  idx="-1"  idxOne="14"  idxTwo="15"  coef="-.5615"/><qTerm  idx="-1"  idxOne="14"  idxTwo="18"  coef=".7985"/><qTerm  idx="-1"  idxOne="14"  idxTwo="23"  coef=".1976"/><qTerm  idx="-1"  idxOne="14"  idxTwo="25"  coef="-.1837"/><qTerm  idx="-1"  idxOne="14"  idxTwo="26"  coef="-.7994"/><qTerm  idx="-1"  idxOne="14"  idxTwo="30"  coef="-.7895"/><qTerm  idx="-1"  idxOne="14"  idxTwo="34"  coef=".146"/><qTerm  idx="-1"  idxOne="14"  idxTwo="36"  coef="-.5227"/><qTerm  idx="-1"  idxOne="14"  idxTwo="37"  coef=".3006"/><qTerm  idx="-1"  idxOne="14"  idxTwo="38"  coef=".8038"/><qTerm  idx="-1"  idxOne="15"  idxTwo="15"  coef="-5.96e-2"/><qTerm  idx="-1"  idxOne="15"  idxTwo="17"  coef=".152"/><qTerm  idx="-1"  idxOne="15"  idxTwo="19"  coef=".5178"/><qTerm  idx="-1"  idxOne="15"  idxTwo="20"  coef="-.1747"/><qTerm  idx="-1"  idxOne="15"  idxTwo="22"  coef=".9976"/><qTerm  idx="-1"  idxOne="15"  idxTwo="23"  coef=".1196"/><qTerm  idx="-1"  idxOne="15"  idxTwo="24"  coef="-.5697"/><qTerm  idx="-1"  idxOne="15"  idxTwo="26"  coef="-.8498"/><qTerm  idx="-1"  idxOne="15"  idxTwo="27"  coef="-.6921"/><qTerm  idx="-1"  idxOne="15"  idxTwo="29"  coef="-8.32e-2"/><qTerm  idx="-1"  idxOne="15"  idxTwo="30"  coef=".7875"/><qTerm  idx="-1"  idxOne="15"  idxTwo="33"  coef=".2374"/><qTerm  idx="-1"  idxOne="15"  idxTwo="34"  coef=".2773"/><qTerm  idx="-1"  idxOne="15"  idxTwo="37"  coef=".8304"/><qTerm  idx="-1"  idxOne="16"  idxTwo="18"  coef="-.2771"/><qTerm  idx="-1"  idxOne="16"  idxTwo="20"  coef=".8288"/><qTerm  idx="-1"  idxOne="16"  idxTwo="21"  coef="-.6953"/><qTerm  idx="-1"  idxOne="16"  idxTwo="22"  coef=".9491"/><qTerm  idx="-1"  idxOne="16"  idxTwo="26"  coef="-.1701"/><qTerm  idx="-1"  idxOne="16"  idxTwo="30"  coef=".4837"/><qTerm  idx="-1"  idxOne="16"  idxTwo="31"  coef="-.9392"/><qTerm  idx="-1"  idxOne="17"  idxTwo="17"  coef="-2.95e-2"/><qTerm  idx="-1"  idxOne="17"  idxTwo="18"  coef=".8232"/><qTerm  idx="-1"  idxOne="17"  idxTwo="19"  coef=".8049"/><qTerm  idx="-1"  idxOne="17"  idxTwo="20"  coef=".8403"/><qTerm  idx="-1"  idxOne="17"  idxTwo="21"  coef="4.02e-2"/><qTerm  idx="-1"  idxOne="17"  idxTwo="25"  coef=".4708"/><qTerm  idx="-1"  idxOne="17"  idxTwo="30"  coef=".653"/><qTerm  idx="-1"  idxOne="17"  idxTwo="31"  coef=".4072"/><qTerm  idx="-1"  idxOne="17"  idxTwo="32"  coef=".3477"/><qTerm  idx="-1"  idxOne="17"  idxTwo="33"  coef="-.8469"/><qTerm  idx="-1"  idxOne="17"  idxTwo="34"  coef="-6.43e-2"/><qTerm  idx="-1"  idxOne="17"  idxTwo="35"  coef=".9855"/><qTerm  idx="-1"  idxOne="17"  idxTwo="36"  coef=".169"/><qTerm  idx="-1"  idxOne="17"  idxTwo="39"  coef=".1277"/><qTerm  idx="-1"  idxOne="18"  idxTwo="19"  coef=".1701"/><qTerm  idx="-1"  idxOne="18"  idxTwo="20"  coef="-.2288"/><qTerm  idx="-1"  idxOne="18"  idxTwo="22"  coef=".6269"/><qTerm  idx="-1"  idxOne="18"  idxTwo="23"  coef="-.165"/><qTerm  idx="-1"  idxOne="18"  idxTwo="24"  coef="-.3328"/><qTerm  idx="-1"  idxOne="18"  idxTwo="26"  coef="7.11e-2"/><qTerm  idx="-1"  idxOne="18"  idxTwo="29"  coef=".8548"/><qTerm  idx="-1"  idxOne="18"  idxTwo="31"  coef=".4886"/><qTerm  idx="-1"  idxOne="18"  idxTwo="33"  coef="-.4103"/><qTerm  idx="-1"  idxOne="18"  idxTwo="35"  coef=".1394"/><qTerm  idx="-1"  idxOne="18"  idxTwo="38"  coef="-.3792"/><qTerm  idx="-1"  idxOne="18"  idxTwo="39"  coef="-6.1e-2"/><qTerm  idx="-1"  idxOne="19"  idxTwo="19"  coef="-.6923"/><qTerm  idx="-1"  idxOne="19"  idxTwo="20"  coef=".194"/><qTerm  idx="-1"  idxOne="19"  idxTwo="21"  coef="-.2253"/><qTerm  idx="-1"  idxOne="19"  idxTwo="23"  coef="-.6197"/><qTerm  idx="-1"  idxOne="19"  idxTwo="25"  coef="-.799"/><qTerm  idx="-1"  idxOne="19"  idxTwo="26"  coef="-.9851"/><qTerm  idx="-1"  idxOne="19"  idxTwo="31"  coef="-.164"/><qTerm  idx="-1"  idxOne="19"  idxTwo="32"  coef=".1448"/><qTerm  idx="-1"  idxOne="19"  idxTwo="34"  coef="1.85e-2"/><qTerm  idx="-1"  idxOne="19"  idxTwo="35"  coef=".3829"/><qTerm  idx="-1"  idxOne="19"  idxTwo="36"  coef=".2687"/><qTerm  idx="-1"  idxOne="20"  idxTwo="21"  coef=".9428"/><qTerm  idx="-1"  idxOne="20"  idxTwo="22"  coef=".9418"/><qTerm  idx="-1"  idxOne="20"  idxTwo="24"  coef=".4694"/><qTerm  idx="-1"  idxOne="20"  idxTwo="25"  coef=".8523"/><qTerm  idx="-1"  idxOne="20"  idxTwo="26"  coef="-.87"/><qTerm  idx="-1"  idxOne="20"  idxTwo="27"  coef="-.5796"/><qTerm  idx="-1"  idxOne="20"  idxTwo="31"  coef="-.486"/><qTerm  idx="-1"  idxOne="20"  idxTwo="32"  coef=".3746"/><qTerm  idx="-1"  idxOne="20"  idxTwo="34"  coef=".4788"/><qTerm  idx="-1"  idxOne="20"  idxTwo="37"  coef="5.86e-2"/><qTerm  idx="-1"  idxOne="20"  idxTwo="38"  coef=".1473"/><qTerm  idx="-1"  idxOne="20"  idxTwo="39"  coef=".2498"/><qTerm  idx="-1"  idxOne="21"  idxTwo="21"  coef="-.6388"/><qTerm  idx="-1"  idxOne="21"  idxTwo="23"  coef=".2472"/><qTerm  idx="-1"  idxOne="21"  idxTwo="24"  coef="-.3687"/><qTerm  idx="-1"  idxOne="21"  idxTwo="25"  coef=".3536"/><qTerm  idx="-1"  idxOne="21"  idxTwo="29"  coef="7.2e-3"/><qTerm  idx="-1"  idxOne="21"  idxTwo="34"  coef="-.5806"/><qTerm  idx="-1"  idxOne="21"  idxTwo="35"  coef="-.5058"/><qTerm  idx="-1"  idxOne="21"  idxTwo="36"  coef="-.116"/><qTerm  idx="-1"  idxOne="22"  idxTwo="23"  coef=".191"/><qTerm  idx="-1"  idxOne="22"  idxTwo="27"  coef=".3699"/><qTerm  idx="-1"  idxOne="22"  idxTwo="28"  coef=".3731"/><qTerm  idx="-1"  idxOne="22"  idxTwo="30"  coef="3.1e-3"/><qTerm  idx="-1"  idxOne="22"  idxTwo="33"  coef=".9294"/><qTerm  idx="-1"  idxOne="22"  idxTwo="35"  coef="-.6047"/><qTerm  idx="-1"  idxOne="22"  idxTwo="36"  coef=".2348"/><qTerm  idx="-1"  idxOne="22"  idxTwo="37"  coef=".8324"/><qTerm  idx="-1"  idxOne="22"  idxTwo="38"  coef=".6608"/><qTerm  idx="-1"  idxOne="23"  idxTwo="23"  coef="-.1673"/><qTerm  idx="-1"  idxOne="23"  idxTwo="25"  coef="-.9519"/><qTerm  idx="-1"  idxOne="23"  idxTwo="27"  coef=".8066"/><qTerm  idx="-1"  idxOne="23"  idxTwo="29"  coef="-.9313"/><qTerm  idx="-1"  idxOne="23"  idxTwo="31"  coef="-2.97e-2"/><qTerm  idx="-1"  idxOne="23"  idxTwo="32"  coef="-.7382"/><qTerm  idx="-1"  idxOne="23"  idxTwo="33"  coef="-.672"/><qTerm  idx="-1"  idxOne="23"  idxTwo="34"  coef=".3061"/><qTerm  idx="-1"  idxOne="23"  idxTwo="36"  coef="-.1984"/><qTerm  idx="-1"  idxOne="23"  idxTwo="37"  coef="-.8696"/><qTerm  idx="-1"  idxOne="23"  idxTwo="38"  coef="-.5035"/><qTerm  idx="-1"  idxOne="23"  idxTwo="39"  coef=".2835"/><qTerm  idx="-1"  idxOne="24"  idxTwo="24"  coef=".2576"/><qTerm  idx="-1"  idxOne="24"  idxTwo="29"  coef="-.5016"/><qTerm  idx="-1"  idxOne="24"  idxTwo="31"  coef="-.738"/><qTerm  idx="-1"  idxOne="24"  idxTwo="35"  coef="-.6402"/><qTerm  idx="-1"  idxOne="24"  idxTwo="36"  coef=".2333"/><qTerm  idx="-1"  idxOne="24"  idxTwo="37"  coef="-.1863"/><qTerm  idx="-1"  idxOne="24"  idxTwo="38"  coef=".6045"/><qTerm  idx="-1"  idxOne="24"  idxTwo="39"  coef="-.5819"/><qTerm  idx="-1"  idxOne="25"  idxTwo="25"  coef="-.809"/><qTerm  idx="-1"  idxOne="25"  idxTwo="27"  coef="-.3189"/><qTerm  idx="-1"  idxOne="25"  idxTwo="29"  coef=".802"/><qTerm  idx="-1"  idxOne="25"  idxTwo="31"  coef="-.8383"/><qTerm  idx="-1"  idxOne="25"  idxTwo="32"  coef=".3569"/><qTerm  idx="-1"  idxOne="25"  idxTwo="33"  coef="3.e-4"/><qTerm  idx="-1"  idxOne="25"  idxTwo="39"  coef=".8089"/><qTerm  idx="-1"  idxOne="26"  idxTwo="27"  coef="-.875"/><qTerm  idx="-1"  idxOne="26"  idxTwo="29"  coef=".4462"/><qTerm  idx="-1"  idxOne="26"  idxTwo="30"  coef="-.3338"/><qTerm  idx="-1"  idxOne="26"  idxTwo="31"  coef=".1814"/><qTerm  idx="-1"  idxOne="26"  idxTwo="33"  coef="-.8771"/><qTerm  idx="-1"  idxOne="26"  idxTwo="34"  coef="-.9101"/><qTerm  idx="-1"  idxOne="26"  idxTwo="36"  coef=".1635"/><qTerm  idx="-1"  idxOne="26"  idxTwo="37"  coef="-.1352"/><qTerm  idx="-1"  idxOne="26"  idxTwo="38"  coef="-.8026"/><qTerm  idx="-1"  idxOne="26"  idxTwo="39"  coef=".9155"/><qTerm  idx="-1"  idxOne="27"  idxTwo="27"  coef=".5442"/><qTerm  idx="-1"  idxOne="27"  idxTwo="28"  coef="-.7053"/><qTerm  idx="-1"  idxOne="27"  idxTwo="31"  coef=".4455"/><qTerm  idx="-1"  idxOne="27"  idxTwo="39"  coef=".9929"/><qTerm  idx="-1"  idxOne="28"  idxTwo="36"  coef="-.3529"/><qTerm  idx="-1"  idxOne="28"  idxTwo="38"  coef="-.8803"/><qTerm  idx="-1"  idxOne="29"  idxTwo="30"  coef="-.9694"/><qTerm  idx="-1"  idxOne="29"  idxTwo="36"  coef=".7938"/><qTerm  idx="-1"  idxOne="30"  idxTwo="32"  coef=".664"/><qTerm  idx="-1"  idxOne="30"  idxTwo="33"  coef=".5083"/><qTerm  idx="-1"  idxOne="30"  idxTwo="37"  coef="-.3124"/><qTerm  idx="-1"  idxOne="30"  idxTwo="38"  coef="-.4061"/><qTerm  idx="-1"  idxOne="31"  idxTwo="31"  coef="8.58e-2"/><qTerm  idx="-1"  idxOne="31"  idxTwo="32"  coef="-.2714"/><qTerm  idx="-1"  idxOne="31"  idxTwo="35"  coef="-.8232"/><qTerm  idx="-1"  idxOne="31"  idxTwo="36"  coef="-.1146"/><qTerm  idx="-1"  idxOne="31"  idxTwo="37"  coef=".9703"/><qTerm  idx="-1"  idxOne="31"  idxTwo="38"  coef=".9858"/><qTerm  idx="-1"  idxOne="31"  idxTwo="39"  coef=".859"/><qTerm  idx="-1"  idxOne="32"  idxTwo="32"  coef="2.64e-2"/><qTerm  idx="-1"  idxOne="32"  idxTwo="34"  coef="-.8325"/><qTerm  idx="-1"  idxOne="32"  idxTwo="35"  coef="-.2402"/><qTerm  idx="-1"  idxOne="32"  idxTwo="36"  coef=".9962"/><qTerm  idx="-1"  idxOne="32"  idxTwo="38"  coef="-.612"/><qTerm  idx="-1"  idxOne="32"  idxTwo="39"  coef="-.7468"/><qTerm  idx="-1"  idxOne="33"  idxTwo="34"  coef=".5066"/><qTerm  idx="-1"  idxOne="33"  idxTwo="35"  coef=".5209"/><qTerm  idx="-1"  idxOne="33"  idxTwo="37"  coef="-.8096"/><qTerm  idx="-1"  idxOne="33"  idxTwo="38"  coef=".2097"/><qTerm  idx="-1"  idxOne="34"  idxTwo="34"  coef="-.8223"/><qTerm  idx="-1"  idxOne="34"  idxTwo="35"  coef=".8219"/><qTerm  idx="-1"  idxOne="34"  idxTwo="36"  coef=".8915"/><qTerm  idx="-1"  idxOne="34"  idxTwo="37"  coef=".4384"/><qTerm  idx="-1"  idxOne="35"  idxTwo="35"  coef="1.04e-2"/><qTerm  idx="-1"  idxOne="35"  idxTwo="39"  coef="-.6145"/><qTerm  idx="-1"  idxOne="36"  idxTwo="36"  coef=".3569"/><qTerm  idx="-1"  idxOne="36"  idxTwo="37"  coef="-8.35e-2"/><qTerm  idx="-1"  idxOne="36"  idxTwo="39"  coef="-.1778"/><qTerm  idx="-1"  idxOne="37"  idxTwo="37"  coef=".1688"/><qTerm  idx="-1"  idxOne="39"  idxTwo="39"  coef="-.6302"/></quadraticCoefficients></instanceData></osil>
